n_res = 4;
rc = [ 18, 7, 12, 16 ];
n_tasks = 30;
d = [ 7, 4, 7, 3, 4, 3, 9, 2, 8, 10, 2, 9, 6, 1, 6, 5, 7, 10, 2, 9, 8, 2, 3, 1, 6, 6, 4, 8, 4, 2 ];
rr = [| 1, 7, 10, 0, 0, 0, 0, 0, 3, 0, 0, 0, 0, 0, 0, 0, 0, 1, 8, 0, 2, 0, 0, 0, 3, 0, 0, 0, 9, 0
      | 0, 0, 0, 0, 0, 0, 0, 0, 0, 0, 0, 0, 0, 0, 0, 0, 0, 0, 0, 0, 0, 0, 0, 4, 0, 7, 0, 5, 0, 0
      | 0, 0, 0, 3, 7, 8, 0, 0, 0, 4, 10, 0, 0, 0, 6, 0, 0, 0, 0, 0, 0, 0, 0, 0, 0, 0, 0, 0, 0, 9
      | 0, 0, 0, 0, 0, 0, 8, 7, 0, 0, 0, 1, 1, 2, 0, 1, 5, 0, 0, 10, 0, 2, 7, 0, 0, 0, 7, 0, 0, 0 |];
suc = [ { 2 }, 
        { 1 }, 
        { 4 }, 
        { 3 }, 
        { 6 }, 
        { 5 }, 
        { 8 }, 
        { 7 }, 
        { 10 }, 
        { 9 }, 
        { 12 }, 
        { 11 }, 
        { 14 }, 
        { 13 }, 
        { 16 }, 
        { 15 }, 
        { 18 }, 
        { 17 }, 
        { 20 }, 
        { 19 }, 
        { 22 }, 
        { 21 }, 
        { 24 }, 
        { 23 }, 
        { 26 }, 
        { 25 }, 
        { 28 }, 
        { 27 }, 
        { 30 }, 
        { 29 }]; 
